NAME 
OBJSENSE MAX
ROWS
 N  OBJ
 L  packing[0]
 L  packing[1]
 L  packing[2]
 L  packing[3]
 L  packing[4]
 L  packing[5]
 L  packing[6]
 L  packing[7]
 L  packing[8]
 L  packing[9]
 L  packing[10]
 L  packing[11]
 L  packing[12]
 L  packing[13]
 L  packing[14]
 L  packing[15]
 L  packing[16]
 L  packing[17]
 L  packing[18]
 L  packing[19]
 L  packing[20]
 L  packing[21]
 L  packing[22]
 L  packing[23]
 L  packing[24]
 L  packing[25]
 L  packing[26]
 L  packing[27]
 L  packing[28]
 L  packing[29]
 L  packing[30]
 L  packing[31]
 L  packing[32]
 L  packing[33]
 L  packing[34]
 L  packing[35]
 L  packing[36]
 L  packing[37]
 L  packing[38]
 L  packing[39]
 L  packing[40]
 L  packing[41]
 L  packing[42]
 L  packing[43]
 L  packing[44]
 L  packing[45]
 L  packing[46]
 L  packing[47]
 L  packing[48]
 L  packing[49]
 L  R57     
COLUMNS
    MARKER    'MARKER'                 'INTORG'
    x[1]      OBJ       174
    x[1]      packing[0]  96
    x[1]      packing[2]  197
    x[1]      packing[3]  159
    x[1]      packing[4]  132
    x[1]      packing[5]  87
    x[1]      packing[6]  119
    x[1]      packing[7]  107
    x[1]      packing[9]  171
    x[1]      packing[11]  108
    x[1]      packing[12]  104
    x[1]      packing[13]  65
    x[1]      packing[14]  188
    x[1]      packing[15]  157
    x[1]      packing[16]  167
    x[1]      packing[17]  66
    x[1]      packing[18]  137
    x[1]      packing[20]  176
    x[1]      packing[21]  118
    x[1]      packing[22]  146
    x[1]      packing[23]  45
    x[1]      packing[24]  58
    x[1]      packing[25]  79
    x[1]      packing[26]  49
    x[1]      packing[28]  157
    x[1]      packing[29]  12
    x[1]      packing[31]  6
    x[1]      packing[32]  43
    x[1]      packing[33]  94
    x[1]      packing[35]  164
    x[1]      packing[37]  146
    x[1]      packing[38]  152
    x[1]      packing[39]  68
    x[1]      packing[41]  106
    x[1]      packing[42]  120
    x[1]      packing[43]  51
    x[1]      packing[44]  122
    x[1]      packing[45]  46
    x[1]      packing[47]  44
    x[1]      packing[48]  167
    x[1]      packing[49]  109
    x[2]      OBJ       124
    x[2]      packing[0]  61
    x[2]      packing[1]  37
    x[2]      packing[3]  193
    x[2]      packing[4]  147
    x[2]      packing[5]  158
    x[2]      packing[6]  167
    x[2]      packing[8]  56
    x[2]      packing[9]  4
    x[2]      packing[12]  86
    x[2]      packing[14]  110
    x[2]      packing[15]  29
    x[2]      packing[16]  147
    x[2]      packing[19]  103
    x[2]      packing[20]  28
    x[2]      packing[21]  161
    x[2]      packing[22]  43
    x[2]      packing[24]  169
    x[2]      packing[25]  83
    x[2]      packing[26]  2
    x[2]      packing[27]  73
    x[2]      packing[28]  166
    x[2]      packing[30]  58
    x[2]      packing[31]  171
    x[2]      packing[33]  142
    x[2]      packing[34]  13
    x[2]      packing[36]  100
    x[2]      packing[37]  71
    x[2]      packing[38]  118
    x[2]      packing[39]  183
    x[2]      packing[40]  127
    x[2]      packing[42]  131
    x[2]      packing[43]  27
    x[2]      packing[44]  2
    x[2]      packing[45]  75
    x[2]      packing[46]  67
    x[2]      packing[47]  119
    x[2]      R57       1
    x[3]      OBJ       133
    x[3]      packing[0]  54
    x[3]      packing[1]  10
    x[3]      packing[5]  57
    x[3]      packing[6]  53
    x[3]      packing[7]  146
    x[3]      packing[8]  84
    x[3]      packing[10]  132
    x[3]      packing[12]  72
    x[3]      packing[13]  163
    x[3]      packing[15]  198
    x[3]      packing[16]  9
    x[3]      packing[17]  165
    x[3]      packing[18]  54
    x[3]      packing[19]  29
    x[3]      packing[20]  52
    x[3]      packing[21]  28
    x[3]      packing[22]  192
    x[3]      packing[24]  45
    x[3]      packing[25]  117
    x[3]      packing[26]  88
    x[3]      packing[27]  94
    x[3]      packing[28]  119
    x[3]      packing[29]  46
    x[3]      packing[31]  184
    x[3]      packing[32]  21
    x[3]      packing[33]  86
    x[3]      packing[38]  3
    x[3]      packing[39]  133
    x[3]      packing[40]  65
    x[3]      packing[41]  11
    x[3]      packing[42]  52
    x[3]      packing[43]  125
    x[3]      packing[46]  139
    x[3]      packing[49]  171
    x[4]      OBJ       175
    x[4]      packing[0]  30
    x[4]      packing[1]  88
    x[4]      packing[2]  168
    x[4]      packing[3]  153
    x[4]      packing[5]  154
    x[4]      packing[6]  106
    x[4]      packing[7]  139
    x[4]      packing[8]  36
    x[4]      packing[9]  6
    x[4]      packing[12]  12
    x[4]      packing[13]  79
    x[4]      packing[15]  3
    x[4]      packing[16]  181
    x[4]      packing[18]  92
    x[4]      packing[19]  146
    x[4]      packing[20]  161
    x[4]      packing[21]  144
    x[4]      packing[22]  125
    x[4]      packing[23]  152
    x[4]      packing[25]  66
    x[4]      packing[26]  123
    x[4]      packing[27]  27
    x[4]      packing[30]  160
    x[4]      packing[31]  20
    x[4]      packing[32]  139
    x[4]      packing[33]  165
    x[4]      packing[34]  3
    x[4]      packing[35]  167
    x[4]      packing[36]  157
    x[4]      packing[38]  145
    x[4]      packing[40]  37
    x[4]      packing[41]  34
    x[4]      packing[43]  106
    x[4]      packing[44]  114
    x[4]      packing[45]  189
    x[4]      packing[46]  42
    x[4]      packing[47]  47
    x[4]      packing[49]  124
    x[4]      R57       1
    x[5]      OBJ       167
    x[5]      packing[0]  185
    x[5]      packing[1]  75
    x[5]      packing[2]  97
    x[5]      packing[4]  33
    x[5]      packing[6]  21
    x[5]      packing[7]  111
    x[5]      packing[11]  98
    x[5]      packing[12]  74
    x[5]      packing[13]  169
    x[5]      packing[14]  190
    x[5]      packing[15]  195
    x[5]      packing[16]  45
    x[5]      packing[17]  53
    x[5]      packing[18]  126
    x[5]      packing[19]  90
    x[5]      packing[20]  7
    x[5]      packing[21]  122
    x[5]      packing[22]  103
    x[5]      packing[23]  171
    x[5]      packing[24]  147
    x[5]      packing[25]  87
    x[5]      packing[28]  131
    x[5]      packing[30]  10
    x[5]      packing[33]  139
    x[5]      packing[35]  53
    x[5]      packing[36]  30
    x[5]      packing[37]  21
    x[5]      packing[38]  155
    x[5]      packing[39]  68
    x[5]      packing[41]  24
    x[5]      packing[42]  85
    x[5]      packing[44]  91
    x[5]      packing[46]  135
    x[5]      packing[47]  62
    x[5]      packing[48]  150
    x[5]      packing[49]  54
    x[5]      R57       1
    x[6]      OBJ       45
    x[6]      packing[0]  121
    x[6]      packing[1]  34
    x[6]      packing[3]  72
    x[6]      packing[4]  3
    x[6]      packing[5]  187
    x[6]      packing[6]  155
    x[6]      packing[7]  191
    x[6]      packing[8]  146
    x[6]      packing[9]  131
    x[6]      packing[10]  174
    x[6]      packing[11]  155
    x[6]      packing[12]  165
    x[6]      packing[14]  124
    x[6]      packing[17]  67
    x[6]      packing[20]  193
    x[6]      packing[21]  63
    x[6]      packing[22]  102
    x[6]      packing[23]  18
    x[6]      packing[24]  83
    x[6]      packing[25]  70
    x[6]      packing[26]  146
    x[6]      packing[27]  46
    x[6]      packing[28]  133
    x[6]      packing[29]  149
    x[6]      packing[30]  179
    x[6]      packing[32]  164
    x[6]      packing[34]  58
    x[6]      packing[36]  117
    x[6]      packing[37]  175
    x[6]      packing[38]  77
    x[6]      packing[39]  96
    x[6]      packing[41]  126
    x[6]      packing[43]  182
    x[6]      packing[45]  102
    x[6]      packing[46]  100
    x[6]      packing[47]  135
    x[6]      packing[48]  163
    x[6]      packing[49]  65
    x[6]      R57       1
    x[7]      OBJ       82
    x[7]      packing[0]  7
    x[7]      packing[1]  76
    x[7]      packing[2]  138
    x[7]      packing[3]  100
    x[7]      packing[4]  93
    x[7]      packing[5]  126
    x[7]      packing[6]  89
    x[7]      packing[7]  148
    x[7]      packing[8]  9
    x[7]      packing[9]  171
    x[7]      packing[10]  176
    x[7]      packing[13]  147
    x[7]      packing[14]  144
    x[7]      packing[17]  23
    x[7]      packing[20]  163
    x[7]      packing[21]  51
    x[7]      packing[22]  196
    x[7]      packing[23]  6
    x[7]      packing[24]  73
    x[7]      packing[25]  193
    x[7]      packing[26]  199
    x[7]      packing[27]  83
    x[7]      packing[29]  97
    x[7]      packing[30]  100
    x[7]      packing[31]  114
    x[7]      packing[34]  192
    x[7]      packing[35]  186
    x[7]      packing[36]  40
    x[7]      packing[37]  78
    x[7]      packing[38]  149
    x[7]      packing[39]  193
    x[7]      packing[40]  118
    x[7]      packing[41]  57
    x[7]      packing[42]  78
    x[7]      packing[43]  156
    x[7]      packing[44]  80
    x[7]      packing[45]  42
    x[7]      packing[49]  58
    x[8]      OBJ       10
    x[8]      packing[0]  197
    x[8]      packing[2]  9
    x[8]      packing[3]  33
    x[8]      packing[4]  103
    x[8]      packing[5]  165
    x[8]      packing[6]  188
    x[8]      packing[7]  80
    x[8]      packing[8]  71
    x[8]      packing[9]  161
    x[8]      packing[14]  89
    x[8]      packing[15]  111
    x[8]      packing[16]  39
    x[8]      packing[17]  135
    x[8]      packing[19]  162
    x[8]      packing[20]  185
    x[8]      packing[21]  89
    x[8]      packing[22]  34
    x[8]      packing[23]  47
    x[8]      packing[24]  31
    x[8]      packing[25]  118
    x[8]      packing[26]  146
    x[8]      packing[27]  64
    x[8]      packing[28]  72
    x[8]      packing[29]  194
    x[8]      packing[30]  59
    x[8]      packing[31]  196
    x[8]      packing[32]  164
    x[8]      packing[37]  121
    x[8]      packing[38]  73
    x[8]      packing[39]  100
    x[8]      packing[42]  62
    x[8]      packing[43]  182
    x[8]      packing[44]  60
    x[8]      packing[45]  69
    x[8]      packing[46]  90
    x[8]      packing[48]  96
    x[9]      OBJ       58
    x[9]      packing[0]  80
    x[9]      packing[1]  115
    x[9]      packing[4]  160
    x[9]      packing[5]  61
    x[9]      packing[7]  31
    x[9]      packing[8]  174
    x[9]      packing[9]  187
    x[9]      packing[10]  24
    x[9]      packing[12]  174
    x[9]      packing[13]  102
    x[9]      packing[15]  65
    x[9]      packing[17]  112
    x[9]      packing[18]  174
    x[9]      packing[19]  139
    x[9]      packing[20]  167
    x[9]      packing[21]  101
    x[9]      packing[23]  46
    x[9]      packing[25]  85
    x[9]      packing[26]  29
    x[9]      packing[27]  46
    x[9]      packing[28]  103
    x[9]      packing[29]  39
    x[9]      packing[30]  112
    x[9]      packing[31]  124
    x[9]      packing[32]  17
    x[9]      packing[33]  21
    x[9]      packing[34]  96
    x[9]      packing[37]  185
    x[9]      packing[38]  81
    x[9]      packing[39]  139
    x[9]      packing[41]  75
    x[9]      packing[42]  134
    x[9]      packing[44]  34
    x[9]      packing[47]  88
    x[9]      packing[48]  148
    x[9]      packing[49]  55
    x[10]     OBJ       101
    x[10]     packing[0]  129
    x[10]     packing[1]  188
    x[10]     packing[2]  189
    x[10]     packing[3]  115
    x[10]     packing[5]  5
    x[10]     packing[6]  116
    x[10]     packing[7]  121
    x[10]     packing[9]  25
    x[10]     packing[11]  184
    x[10]     packing[12]  11
    x[10]     packing[13]  58
    x[10]     packing[14]  49
    x[10]     packing[15]  175
    x[10]     packing[16]  29
    x[10]     packing[17]  90
    x[10]     packing[18]  14
    x[10]     packing[20]  188
    x[10]     packing[21]  145
    x[10]     packing[22]  131
    x[10]     packing[23]  69
    x[10]     packing[25]  51
    x[10]     packing[26]  162
    x[10]     packing[28]  43
    x[10]     packing[29]  107
    x[10]     packing[31]  176
    x[10]     packing[34]  151
    x[10]     packing[35]  179
    x[10]     packing[37]  125
    x[10]     packing[39]  29
    x[10]     packing[40]  80
    x[10]     packing[41]  99
    x[10]     packing[43]  141
    x[10]     packing[44]  89
    x[10]     packing[46]  1
    x[10]     packing[49]  72
    x[11]     OBJ       41
    x[11]     packing[0]  79
    x[11]     packing[1]  172
    x[11]     packing[3]  138
    x[11]     packing[4]  35
    x[11]     packing[6]  68
    x[11]     packing[8]  99
    x[11]     packing[9]  171
    x[11]     packing[10]  31
    x[11]     packing[11]  102
    x[11]     packing[13]  88
    x[11]     packing[14]  124
    x[11]     packing[15]  31
    x[11]     packing[16]  18
    x[11]     packing[17]  43
    x[11]     packing[18]  38
    x[11]     packing[19]  101
    x[11]     packing[21]  47
    x[11]     packing[23]  170
    x[11]     packing[24]  132
    x[11]     packing[26]  59
    x[11]     packing[27]  199
    x[11]     packing[28]  71
    x[11]     packing[30]  44
    x[11]     packing[33]  3
    x[11]     packing[34]  60
    x[11]     packing[35]  73
    x[11]     packing[36]  22
    x[11]     packing[37]  132
    x[11]     packing[38]  98
    x[11]     packing[40]  26
    x[11]     packing[41]  181
    x[11]     packing[42]  86
    x[11]     packing[43]  69
    x[11]     packing[44]  107
    x[11]     packing[45]  106
    x[11]     packing[47]  141
    x[11]     packing[49]  120
    x[12]     OBJ       15
    x[12]     packing[0]  58
    x[12]     packing[1]  197
    x[12]     packing[2]  106
    x[12]     packing[3]  117
    x[12]     packing[4]  19
    x[12]     packing[5]  61
    x[12]     packing[6]  38
    x[12]     packing[8]  89
    x[12]     packing[9]  70
    x[12]     packing[10]  143
    x[12]     packing[11]  177
    x[12]     packing[12]  43
    x[12]     packing[13]  127
    x[12]     packing[14]  41
    x[12]     packing[15]  88
    x[12]     packing[16]  16
    x[12]     packing[17]  130
    x[12]     packing[18]  24
    x[12]     packing[19]  137
    x[12]     packing[20]  71
    x[12]     packing[24]  44
    x[12]     packing[25]  119
    x[12]     packing[26]  83
    x[12]     packing[27]  94
    x[12]     packing[28]  191
    x[12]     packing[29]  61
    x[12]     packing[31]  96
    x[12]     packing[32]  105
    x[12]     packing[33]  192
    x[12]     packing[34]  36
    x[12]     packing[35]  128
    x[12]     packing[36]  120
    x[12]     packing[37]  77
    x[12]     packing[38]  159
    x[12]     packing[40]  74
    x[12]     packing[41]  89
    x[12]     packing[42]  86
    x[12]     packing[43]  165
    x[12]     packing[44]  20
    x[12]     packing[45]  92
    x[12]     packing[48]  68
    x[12]     packing[49]  147
    x[13]     OBJ       25
    x[13]     packing[1]  83
    x[13]     packing[2]  129
    x[13]     packing[4]  87
    x[13]     packing[5]  149
    x[13]     packing[6]  82
    x[13]     packing[7]  176
    x[13]     packing[8]  166
    x[13]     packing[9]  136
    x[13]     packing[10]  127
    x[13]     packing[12]  53
    x[13]     packing[15]  164
    x[13]     packing[17]  62
    x[13]     packing[18]  140
    x[13]     packing[21]  152
    x[13]     packing[23]  142
    x[13]     packing[24]  189
    x[13]     packing[25]  199
    x[13]     packing[27]  24
    x[13]     packing[28]  30
    x[13]     packing[31]  152
    x[13]     packing[32]  116
    x[13]     packing[33]  187
    x[13]     packing[34]  83
    x[13]     packing[35]  123
    x[13]     packing[36]  189
    x[13]     packing[37]  106
    x[13]     packing[39]  92
    x[13]     packing[41]  160
    x[13]     packing[45]  85
    x[13]     packing[46]  95
    x[13]     packing[47]  196
    x[13]     packing[48]  193
    x[13]     packing[49]  95
    x[14]     OBJ       174
    x[14]     packing[0]  37
    x[14]     packing[1]  139
    x[14]     packing[3]  85
    x[14]     packing[4]  73
    x[14]     packing[5]  39
    x[14]     packing[6]  169
    x[14]     packing[7]  87
    x[14]     packing[8]  157
    x[14]     packing[9]  95
    x[14]     packing[11]  20
    x[14]     packing[12]  29
    x[14]     packing[13]  130
    x[14]     packing[14]  65
    x[14]     packing[15]  120
    x[14]     packing[16]  81
    x[14]     packing[17]  64
    x[14]     packing[18]  55
    x[14]     packing[21]  152
    x[14]     packing[22]  162
    x[14]     packing[23]  73
    x[14]     packing[24]  8
    x[14]     packing[25]  158
    x[14]     packing[27]  176
    x[14]     packing[29]  153
    x[14]     packing[30]  138
    x[14]     packing[31]  195
    x[14]     packing[32]  109
    x[14]     packing[33]  88
    x[14]     packing[35]  14
    x[14]     packing[36]  89
    x[14]     packing[37]  63
    x[14]     packing[38]  88
    x[14]     packing[39]  172
    x[14]     packing[40]  43
    x[14]     packing[42]  127
    x[14]     packing[43]  142
    x[14]     packing[44]  84
    x[14]     packing[45]  151
    x[14]     packing[46]  99
    x[14]     packing[48]  22
    x[14]     packing[49]  75
    x[14]     R57       1
    x[15]     OBJ       2
    x[15]     packing[0]  5
    x[15]     packing[1]  176
    x[15]     packing[2]  72
    x[15]     packing[3]  1
    x[15]     packing[5]  152
    x[15]     packing[6]  52
    x[15]     packing[7]  194
    x[15]     packing[9]  115
    x[15]     packing[11]  179
    x[15]     packing[13]  34
    x[15]     packing[14]  64
    x[15]     packing[16]  5
    x[15]     packing[17]  97
    x[15]     packing[18]  183
    x[15]     packing[20]  79
    x[15]     packing[21]  4
    x[15]     packing[22]  134
    x[15]     packing[23]  186
    x[15]     packing[24]  126
    x[15]     packing[25]  145
    x[15]     packing[26]  139
    x[15]     packing[28]  110
    x[15]     packing[29]  116
    x[15]     packing[30]  93
    x[15]     packing[31]  33
    x[15]     packing[32]  191
    x[15]     packing[33]  172
    x[15]     packing[35]  171
    x[15]     packing[37]  24
    x[15]     packing[38]  136
    x[15]     packing[39]  120
    x[15]     packing[40]  112
    x[15]     packing[42]  185
    x[15]     packing[44]  54
    x[15]     packing[46]  127
    x[15]     packing[47]  77
    x[15]     packing[49]  197
    x[16]     OBJ       78
    x[16]     packing[0]  190
    x[16]     packing[1]  175
    x[16]     packing[3]  15
    x[16]     packing[4]  199
    x[16]     packing[5]  62
    x[16]     packing[6]  47
    x[16]     packing[7]  17
    x[16]     packing[9]  162
    x[16]     packing[10]  84
    x[16]     packing[11]  70
    x[16]     packing[12]  148
    x[16]     packing[13]  71
    x[16]     packing[14]  136
    x[16]     packing[15]  177
    x[16]     packing[21]  3
    x[16]     packing[22]  132
    x[16]     packing[23]  50
    x[16]     packing[24]  19
    x[16]     packing[26]  133
    x[16]     packing[27]  157
    x[16]     packing[28]  140
    x[16]     packing[29]  185
    x[16]     packing[30]  169
    x[16]     packing[31]  24
    x[16]     packing[33]  3
    x[16]     packing[34]  120
    x[16]     packing[35]  25
    x[16]     packing[36]  154
    x[16]     packing[37]  130
    x[16]     packing[38]  134
    x[16]     packing[39]  177
    x[16]     packing[40]  108
    x[16]     packing[41]  50
    x[16]     packing[43]  7
    x[16]     packing[44]  46
    x[16]     packing[45]  161
    x[16]     packing[46]  11
    x[16]     packing[47]  9
    x[16]     packing[48]  102
    x[16]     packing[49]  129
    x[16]     R57       1
    x[17]     OBJ       2
    x[17]     packing[0]  86
    x[17]     packing[1]  64
    x[17]     packing[3]  179
    x[17]     packing[4]  49
    x[17]     packing[5]  118
    x[17]     packing[6]  190
    x[17]     packing[9]  134
    x[17]     packing[10]  48
    x[17]     packing[11]  55
    x[17]     packing[12]  137
    x[17]     packing[13]  53
    x[17]     packing[14]  80
    x[17]     packing[15]  112
    x[17]     packing[17]  109
    x[17]     packing[18]  90
    x[17]     packing[19]  194
    x[17]     packing[20]  77
    x[17]     packing[23]  50
    x[17]     packing[24]  66
    x[17]     packing[25]  134
    x[17]     packing[26]  130
    x[17]     packing[28]  163
    x[17]     packing[29]  138
    x[17]     packing[31]  7
    x[17]     packing[32]  136
    x[17]     packing[33]  188
    x[17]     packing[34]  67
    x[17]     packing[36]  51
    x[17]     packing[37]  51
    x[17]     packing[38]  102
    x[17]     packing[39]  166
    x[17]     packing[40]  15
    x[17]     packing[41]  144
    x[17]     packing[42]  123
    x[17]     packing[43]  25
    x[17]     packing[44]  22
    x[17]     packing[45]  142
    x[17]     packing[46]  107
    x[17]     packing[47]  78
    x[17]     packing[48]  65
    x[18]     OBJ       98
    x[18]     packing[0]  27
    x[18]     packing[1]  51
    x[18]     packing[3]  15
    x[18]     packing[4]  30
    x[18]     packing[6]  13
    x[18]     packing[7]  68
    x[18]     packing[8]  29
    x[18]     packing[10]  116
    x[18]     packing[11]  80
    x[18]     packing[14]  38
    x[18]     packing[16]  195
    x[18]     packing[17]  83
    x[18]     packing[19]  42
    x[18]     packing[20]  155
    x[18]     packing[21]  33
    x[18]     packing[22]  133
    x[18]     packing[24]  158
    x[18]     packing[25]  96
    x[18]     packing[26]  79
    x[18]     packing[27]  39
    x[18]     packing[30]  195
    x[18]     packing[31]  159
    x[18]     packing[32]  32
    x[18]     packing[34]  24
    x[18]     packing[35]  37
    x[18]     packing[36]  66
    x[18]     packing[37]  143
    x[18]     packing[39]  18
    x[18]     packing[40]  189
    x[18]     packing[42]  87
    x[18]     packing[45]  114
    x[18]     packing[46]  151
    x[18]     packing[47]  87
    x[18]     packing[48]  189
    x[18]     packing[49]  67
    x[19]     OBJ       124
    x[19]     packing[0]  58
    x[19]     packing[1]  28
    x[19]     packing[2]  108
    x[19]     packing[3]  130
    x[19]     packing[4]  39
    x[19]     packing[5]  133
    x[19]     packing[6]  12
    x[19]     packing[10]  163
    x[19]     packing[12]  173
    x[19]     packing[13]  14
    x[19]     packing[14]  180
    x[19]     packing[15]  144
    x[19]     packing[16]  188
    x[19]     packing[17]  165
    x[19]     packing[18]  155
    x[19]     packing[19]  91
    x[19]     packing[20]  7
    x[19]     packing[21]  3
    x[19]     packing[23]  7
    x[19]     packing[26]  107
    x[19]     packing[27]  152
    x[19]     packing[28]  51
    x[19]     packing[29]  52
    x[19]     packing[30]  1
    x[19]     packing[31]  1
    x[19]     packing[32]  62
    x[19]     packing[33]  75
    x[19]     packing[34]  154
    x[19]     packing[36]  150
    x[19]     packing[37]  128
    x[19]     packing[38]  104
    x[19]     packing[39]  170
    x[19]     packing[40]  36
    x[19]     packing[41]  26
    x[19]     packing[42]  189
    x[19]     packing[43]  174
    x[19]     packing[44]  110
    x[19]     packing[46]  162
    x[19]     packing[47]  71
    x[20]     OBJ       35
    x[20]     packing[0]  132
    x[20]     packing[4]  189
    x[20]     packing[5]  177
    x[20]     packing[6]  65
    x[20]     packing[7]  60
    x[20]     packing[8]  159
    x[20]     packing[10]  13
    x[20]     packing[11]  12
    x[20]     packing[12]  100
    x[20]     packing[13]  135
    x[20]     packing[15]  14
    x[20]     packing[16]  115
    x[20]     packing[17]  180
    x[20]     packing[18]  84
    x[20]     packing[19]  53
    x[20]     packing[21]  29
    x[20]     packing[23]  198
    x[20]     packing[25]  147
    x[20]     packing[26]  131
    x[20]     packing[27]  134
    x[20]     packing[29]  126
    x[20]     packing[30]  87
    x[20]     packing[31]  93
    x[20]     packing[32]  116
    x[20]     packing[33]  21
    x[20]     packing[34]  74
    x[20]     packing[35]  36
    x[20]     packing[37]  22
    x[20]     packing[38]  108
    x[20]     packing[39]  163
    x[20]     packing[40]  114
    x[20]     packing[41]  86
    x[20]     packing[42]  83
    x[20]     packing[44]  96
    x[20]     packing[46]  193
    x[20]     packing[47]  56
    x[20]     packing[48]  103
    x[20]     packing[49]  152
    MARKER    'MARKER'                 'INTEND'
RHS
    RHS1      packing[0]  816
    RHS1      packing[1]  854
    RHS1      packing[2]  607
    RHS1      packing[3]  753
    RHS1      packing[4]  696
    RHS1      packing[5]  946
    RHS1      packing[6]  875
    RHS1      packing[7]  838
    RHS1      packing[8]  638
    RHS1      packing[9]  870
    RHS1      packing[10]  616
    RHS1      packing[11]  620
    RHS1      packing[12]  691
    RHS1      packing[13]  718
    RHS1      packing[14]  811
    RHS1      packing[15]  892
    RHS1      packing[16]  618
    RHS1      packing[17]  822
    RHS1      packing[18]  683
    RHS1      packing[19]  644
    RHS1      packing[20]  855
    RHS1      packing[21]  723
    RHS1      packing[22]  817
    RHS1      packing[23]  715
    RHS1      packing[24]  674
    RHS1      packing[25]  974
    RHS1      packing[26]  903
    RHS1      packing[27]  704
    RHS1      packing[28]  840
    RHS1      packing[29]  738
    RHS1      packing[30]  703
    RHS1      packing[31]  876
    RHS1      packing[32]  708
    RHS1      packing[33]  788
    RHS1      packing[34]  566
    RHS1      packing[35]  678
    RHS1      packing[36]  643
    RHS1      packing[37]  899
    RHS1      packing[38]  941
    RHS1      packing[39]  1044
    RHS1      packing[40]  572
    RHS1      packing[41]  634
    RHS1      packing[42]  814
    RHS1      packing[43]  776
    RHS1      packing[44]  566
    RHS1      packing[45]  687
    RHS1      packing[46]  760
    RHS1      packing[47]  605
    RHS1      packing[48]  733
    RHS1      packing[49]  845
    RHS1      R57       5
BOUNDS
 BV BND1      x[1]    
 BV BND1      x[2]    
 BV BND1      x[3]    
 BV BND1      x[4]    
 BV BND1      x[5]    
 BV BND1      x[6]    
 BV BND1      x[7]    
 BV BND1      x[8]    
 BV BND1      x[9]    
 BV BND1      x[10]   
 BV BND1      x[11]   
 BV BND1      x[12]   
 BV BND1      x[13]   
 BV BND1      x[14]   
 BV BND1      x[15]   
 BV BND1      x[16]   
 BV BND1      x[17]   
 BV BND1      x[18]   
 BV BND1      x[19]   
 BV BND1      x[20]   
ENDATA
